#
#  Optical line-spread function for white light measured from 
#  Campbell & Gubisch (1966) for a 5.8 mm pupil. 
#  Calibrated in degrees.
#
#
-0.0666667  0.0898876
-0.0633333  0.101124
-0.06       0.117978
-0.0566667  0.129213
-0.0533333  0.146067
-0.05       0.157303
-0.0466667  0.168539
-0.0433333  0.179775
-0.04       0.196629
-0.0366667  0.224719
-0.0333333  0.258427
-0.03       0.286517
-0.0266667  0.325843
-0.0233333  0.365169
-0.02       0.410112
-0.0166667  0.477528
-0.0133333  0.58427
-0.01       0.674157
-0.00666667 0.775281
-0.00333333 0.910112
-0.00166667 0.966292
0  1
0.00166667 0.966292
0.00333333 0.910112
0.00666667 0.775281
0.01       0.674157
0.0133333  0.58427
0.0166667  0.477528
0.02       0.410112
0.0233333  0.365169
0.0266667  0.325843
0.03       0.286517
0.0333333  0.258427
0.0366667  0.224719
0.04       0.196629
0.0433333  0.179775
0.0466667  0.168539
0.05       0.157303
0.0533333  0.146067
0.0566667  0.129213
0.06       0.117978
0.0633333  0.101124
0.0666667  0.0898876
