#
#  Optical line-spread function for white light measured from 
#  Campbell & Gubisch (1966) for a 5.8 mm pupil. 
#  Calibrated in microns (300 um/degree).
#
#
0  1
0.5  0.966292
1  0.910112
2  0.775281
3  0.674157
4  0.58427
5  0.477528
6  0.410112
7  0.365169
8  0.325843
9  0.286517
10  0.258427
11  0.224719
12  0.196629
13  0.179775
14  0.168539
15  0.157303
16  0.146067
17  0.129213
18  0.117978
19  0.101124
20  0.0898876
